(set-logic QF_SLIA)
(declare-fun var0 () String)
(assert (not (str.in_re var0 (re.++ ((_ re.loop 15 886) (re.++ (re.union (str.to_re "#mq") (re.union (str.to_re ";") (re.union (str.to_re "L") (str.to_re "%4O")))) (re.++ (re.union (str.to_re "V") (re.union (str.to_re "G") (re.union (str.to_re "x&") (str.to_re ",qz")))) (re.++ (re.union (str.to_re "oed") (re.union (str.to_re "@`|") (re.union (str.to_re "}#e") (str.to_re "g")))) (re.union (str.to_re "~PN") (re.union (str.to_re ".") (re.union (str.to_re "L#F") (str.to_re "r")))))))) (re.++ ((_ re.loop 4 556) (re.++ (re.union (str.to_re "y5") (re.union (str.to_re "0") (re.union (str.to_re "]lb") (str.to_re "G.o")))) (re.++ (re.union (str.to_re "9@") (re.union (str.to_re "RV\u0022") (re.union (str.to_re ";") (str.to_re "B3x")))) (re.++ (re.union (str.to_re ";") (re.union (str.to_re "p") (re.union (str.to_re "3r") (str.to_re "5")))) (re.union (str.to_re "w") (re.union (str.to_re "B") (re.union (str.to_re ">=") (str.to_re ":s")))))))) (re.++ ((_ re.loop 4 272) (re.++ (re.union (str.to_re "wT") (re.union (str.to_re ">vk") (re.union (str.to_re "#\u0022") (str.to_re "5")))) (re.++ (re.union (str.to_re "46u") (re.union (str.to_re ")|") (re.union (str.to_re "c.") (str.to_re "[")))) (re.++ (re.union (str.to_re "o") (re.union (str.to_re "O") (re.union (str.to_re "@") (str.to_re "n")))) (re.union (str.to_re "B") (re.union (str.to_re "B") (re.union (str.to_re "+)") (str.to_re "h(")))))))) ((_ re.loop 0 515) (re.++ (re.union (str.to_re "b~") (re.union (str.to_re "{U") (re.union (str.to_re "l") (str.to_re "rlK")))) (re.++ (re.union (str.to_re "av") (re.union (str.to_re "HHQ") (re.union (str.to_re "KmX") (str.to_re "KV")))) (re.++ (re.union (str.to_re "EqW") (re.union (str.to_re "F$M") (re.union (str.to_re "*") (str.to_re "1")))) (re.union (str.to_re "_M") (re.union (str.to_re "S%") (re.union (str.to_re "8") (str.to_re "k#l"))))))))))))))
(assert (not (str.in_re var0 (re.++ ((_ re.loop 18 646) (re.++ (re.union (str.to_re "dL2") (re.union (str.to_re "x_L") (re.union (str.to_re "b8q") (str.to_re "Rc")))) (re.++ (re.union (str.to_re "?hs") (re.union (str.to_re "'#") (re.union (str.to_re "b?v") (str.to_re "I>")))) (re.++ (re.union (str.to_re ";") (re.union (str.to_re "p") (re.union (str.to_re "`F") (str.to_re "/")))) (re.union (str.to_re "f,k") (re.union (str.to_re "fX") (re.union (str.to_re "s") (str.to_re "W0r")))))))) (re.++ ((_ re.loop 16 63) (re.++ (re.union (str.to_re "I]0") (re.union (str.to_re "~:d") (re.union (str.to_re "&?u") (str.to_re "3")))) (re.++ (re.union (str.to_re "7x;") (re.union (str.to_re "(yK") (re.union (str.to_re "H") (str.to_re "Y'4")))) (re.++ (re.union (str.to_re "jal") (re.union (str.to_re "I]") (re.union (str.to_re "i") (str.to_re "d")))) (re.union (str.to_re "_aW") (re.union (str.to_re "$") (re.union (str.to_re "@y1") (str.to_re "\\0")))))))) (re.++ ((_ re.loop 16 466) (re.++ (re.union (str.to_re "RE3") (re.union (str.to_re "y%") (re.union (str.to_re "d;") (str.to_re "I~D")))) (re.++ (re.union (str.to_re "%W") (re.union (str.to_re "mH") (re.union (str.to_re "T#d") (str.to_re "^")))) (re.++ (re.union (str.to_re "pt^") (re.union (str.to_re ".") (re.union (str.to_re "j") (str.to_re "qE")))) (re.union (str.to_re "lo") (re.union (str.to_re "?kx") (re.union (str.to_re "_J(") (str.to_re "OH:")))))))) ((_ re.loop 3 923) (re.++ (re.union (str.to_re "pg(") (re.union (str.to_re "5]") (re.union (str.to_re "~z") (str.to_re "y@")))) (re.++ (re.union (str.to_re "8") (re.union (str.to_re "Gr") (re.union (str.to_re "WC") (str.to_re "2|")))) (re.++ (re.union (str.to_re "*aJ") (re.union (str.to_re "uX}") (re.union (str.to_re "A") (str.to_re "&@g")))) (re.union (str.to_re ">BQ") (re.union (str.to_re "4IH") (re.union (str.to_re "c") (str.to_re "2ph"))))))))))))))
(assert (not (str.in_re var0 (re.++ (re.* re.allchar) (re.++ (re.union (str.to_re "<") (re.union (str.to_re ">") (re.union (str.to_re "'") (re.union (str.to_re "\u0022") (str.to_re "&"))))) (re.* re.allchar))))))
(assert (<= 50 (str.len var0)))
(check-sat)
(get-model)
